7800
7448
7281
4178
7471
8944
5589
1756
5097
8643
832
1290
4729
1200
7864
5626
4954
9505
2886
10063
6163
4675
5279
9429
6734
1863
7910
3608
5497
5655
3937
5364
3721
9209
8722
981
8224
9361
6009
9865
5824
10101
5858
5555
9730
7101
9598
10184
5355
8704
